p tw 100 16501 2 
1 3 
1 4 
1 5 
1 6 
1 7 
1 8 
1 9 
1 10 
1 11 
1 12 
1 13 
1 14 
1 15 
1 16 
1 26 
1 30 
1 35 
1 41 
1 44 
1 52 
1 56 
1 57 
1 58 
1 59 
1 60 
1 61 
1 67 
1 74 
1 78 
1 87 
1 89 
1 100 
2 3 
2 4 
2 5 
2 6 
2 7 
2 8 
2 9 
2 10 
2 11 
2 12 
2 13 
2 17 
2 18 
2 19 
2 24 
2 29 
2 35 
2 38 
2 46 
2 47 
2 53 
2 60 
2 61 
2 62 
2 63 
2 64 
2 66 
2 71 
2 79 
2 82 
2 92 
2 93 
3 4 
3 5 
3 6 
3 7 
3 8 
3 9 
3 10 
3 11 
3 12 
3 13 
3 20 
3 21 
3 22 
3 27 
3 32 
3 38 
3 41 
3 49 
3 50 
3 53 
3 54 
3 55 
3 56 
3 57 
3 64 
3 70 
3 75 
3 83 
3 86 
3 96 
3 97 
4 5 
4 6 
4 7 
4 8 
4 9 
4 10 
4 11 
4 12 
4 16 
4 20 
4 23 
4 24 
4 25 
4 26 
4 36 
4 40 
4 45 
4 51 
4 56 
4 61 
4 68 
4 69 
4 70 
4 71 
4 72 
4 73 
4 79 
4 86 
4 90 
4 99 
5 6 
5 7 
5 8 
5 9 
5 10 
5 11 
5 12 
5 14 
5 19 
5 23 
5 27 
5 28 
5 29 
5 34 
5 39 
5 45 
5 48 
5 53 
5 60 
5 65 
5 72 
5 73 
5 74 
5 75 
5 76 
5 78 
5 83 
5 91 
5 94 
6 7 
6 8 
6 9 
6 10 
6 11 
6 12 
6 17 
6 22 
6 23 
6 30 
6 31 
6 32 
6 37 
6 42 
6 48 
6 51 
6 57 
6 64 
6 65 
6 66 
6 67 
6 68 
6 69 
6 76 
6 82 
6 87 
6 95 
6 98 
7 8 
7 9 
7 10 
7 11 
7 12 
7 15 
7 21 
7 26 
7 30 
7 33 
7 34 
7 35 
7 36 
7 46 
7 50 
7 55 
7 62 
7 68 
7 73 
7 80 
7 81 
7 82 
7 83 
7 84 
7 85 
7 91 
7 98 
8 9 
8 10 
8 11 
8 12 
8 15 
8 18 
8 24 
8 29 
8 33 
8 37 
8 38 
8 39 
8 44 
8 49 
8 54 
8 59 
8 65 
8 72 
8 77 
8 84 
8 85 
8 86 
8 87 
8 88 
8 90 
8 95 
9 10 
9 11 
9 12 
9 18 
9 21 
9 27 
9 32 
9 33 
9 40 
9 41 
9 42 
9 47 
9 52 
9 58 
9 63 
9 69 
9 76 
9 77 
9 78 
9 79 
9 80 
9 81 
9 88 
9 94 
9 99 
10 11 
10 12 
10 14 
10 22 
10 25 
10 31 
10 36 
10 40 
10 43 
10 44 
10 45 
10 46 
10 54 
10 63 
10 67 
10 74 
10 80 
10 85 
10 92 
10 93 
10 94 
10 95 
10 96 
10 97 
11 12 
11 16 
11 17 
11 25 
11 28 
11 34 
11 39 
11 43 
11 47 
11 48 
11 49 
11 55 
11 58 
11 66 
11 71 
11 77 
11 84 
11 89 
11 96 
11 97 
11 98 
11 99 
11 100 
12 19 
12 20 
12 28 
12 31 
12 37 
12 42 
12 43 
12 50 
12 51 
12 52 
12 59 
12 62 
12 70 
12 75 
12 81 
12 88 
12 89 
12 90 
12 91 
12 92 
12 93 
12 100 
13 14 
13 15 
13 16 
13 17 
13 18 
13 19 
13 20 
13 21 
13 22 
13 24 
13 27 
13 30 
13 35 
13 38 
13 41 
13 46 
13 49 
13 52 
13 53 
13 57 
13 61 
13 66 
13 70 
13 74 
13 79 
13 83 
13 87 
13 92 
13 96 
13 100 
14 15 
14 16 
14 23 
14 25 
14 27 
14 28 
14 29 
14 30 
14 34 
14 36 
14 41 
14 45 
14 52 
14 53 
14 54 
14 61 
14 65 
14 67 
14 74 
14 78 
14 80 
14 87 
14 91 
14 92 
14 93 
14 94 
14 95 
14 96 
14 100 
15 16 
15 24 
15 26 
15 30 
15 33 
15 37 
15 38 
15 39 
15 41 
15 44 
15 46 
15 52 
15 54 
15 55 
15 61 
15 65 
15 68 
15 74 
15 77 
15 80 
15 81 
15 82 
15 83 
15 84 
15 87 
15 90 
15 91 
15 100 
16 25 
16 30 
16 34 
16 36 
16 41 
16 43 
16 45 
16 47 
16 48 
16 49 
16 52 
16 55 
16 56 
16 61 
16 66 
16 68 
16 69 
16 70 
16 71 
16 72 
16 74 
16 77 
16 79 
16 87 
16 89 
16 90 
16 100 
17 18 
17 19 
17 23 
17 24 
17 28 
17 30 
17 31 
17 32 
17 35 
17 37 
17 39 
17 46 
17 48 
17 53 
17 57 
17 58 
17 66 
17 69 
17 71 
17 79 
17 82 
17 84 
17 92 
17 95 
17 96 
17 97 
17 98 
17 99 
17 100 
18 19 
18 24 
18 27 
18 29 
18 33 
18 35 
18 40 
18 41 
18 42 
18 46 
18 47 
18 49 
18 53 
18 58 
18 59 
18 66 
18 69 
18 72 
18 79 
18 81 
18 84 
18 85 
18 86 
18 87 
18 88 
18 92 
18 94 
18 95 
19 24 
19 28 
19 35 
19 37 
19 39 
19 43 
19 46 
19 48 
19 50 
19 51 
19 52 
19 53 
19 59 
19 60 
19 66 
19 70 
19 72 
19 73 
19 74 
19 75 
19 76 
19 79 
19 81 
19 83 
19 92 
19 93 
19 94 
20 21 
20 22 
20 23 
20 24 
20 25 
20 26 
20 27 
20 31 
20 38 
20 40 
20 42 
20 49 
20 51 
20 57 
20 61 
20 62 
20 70 
20 73 
20 75 
20 83 
20 86 
20 88 
20 89 
20 90 
20 91 
20 92 
20 96 
20 99 
20 100 
21 22 
21 27 
21 30 
21 32 
21 33 
21 34 
21 35 
21 36 
21 38 
21 49 
21 50 
21 52 
21 57 
21 62 
21 63 
21 70 
21 73 
21 76 
21 77 
21 78 
21 79 
21 80 
21 83 
21 85 
21 88 
21 96 
21 98 
21 99 
22 27 
22 31 
22 38 
22 40 
22 42 
22 43 
22 44 
22 45 
22 46 
22 49 
22 51 
22 57 
22 63 
22 64 
22 65 
22 66 
22 67 
22 68 
22 70 
22 74 
22 76 
22 83 
22 85 
22 87 
22 96 
22 97 
22 98 
23 24 
23 25 
23 26 
23 27 
23 28 
23 29 
23 30 
23 31 
23 32 
23 34 
23 37 
23 40 
23 45 
23 48 
23 51 
23 53 
23 57 
23 61 
23 65 
23 69 
23 73 
23 78 
23 82 
23 86 
23 91 
23 95 
23 99 
24 25 
24 26 
24 33 
24 35 
24 37 
24 38 
24 39 
24 40 
24 44 
24 46 
24 51 
24 53 
24 54 
24 61 
24 65 
24 66 
24 73 
24 77 
24 79 
24 86 
24 90 
24 92 
24 99 
25 26 
25 34 
25 36 
25 40 
25 43 
25 47 
25 48 
25 49 
25 51 
25 54 
25 55 
25 61 
25 66 
25 67 
25 73 
25 77 
25 80 
25 86 
25 89 
25 92 
25 93 
25 94 
25 95 
25 96 
25 99 
26 35 
26 40 
26 44 
26 46 
26 51 
26 55 
26 56 
26 57 
26 58 
26 59 
26 60 
26 61 
26 67 
26 68 
26 73 
26 78 
26 80 
26 81 
26 82 
26 83 
26 84 
26 86 
26 89 
26 91 
26 99 
27 28 
27 29 
27 33 
27 34 
27 38 
27 40 
27 41 
27 42 
27 45 
27 47 
27 49 
27 53 
27 57 
27 58 
27 65 
27 69 
27 70 
27 78 
27 81 
27 83 
27 91 
27 94 
27 96 
28 29 
28 34 
28 37 
28 39 
28 43 
28 45 
28 50 
28 51 
28 52 
28 53 
28 58 
28 59 
28 65 
28 70 
28 71 
28 78 
28 81 
28 84 
28 91 
28 93 
28 96 
28 97 
28 98 
28 99 
28 100 
29 34 
29 38 
29 45 
29 47 
29 49 
29 53 
29 59 
29 60 
29 61 
29 62 
29 63 
29 64 
29 65 
29 71 
29 72 
29 78 
29 82 
29 84 
29 85 
29 86 
29 87 
29 88 
29 91 
29 93 
29 95 
30 31 
30 32 
30 33 
30 34 
30 35 
30 36 
30 37 
30 41 
30 48 
30 50 
30 52 
30 57 
30 61 
30 62 
30 69 
30 73 
30 74 
30 82 
30 85 
30 87 
30 95 
30 98 
30 100 
31 32 
31 37 
31 40 
31 42 
31 43 
31 44 
31 45 
31 46 
31 48 
31 57 
31 62 
31 63 
31 69 
31 74 
31 75 
31 82 
31 85 
31 88 
31 89 
31 90 
31 91 
31 92 
31 95 
31 97 
31 100 
32 37 
32 41 
32 48 
32 50 
32 52 
32 53 
32 54 
32 55 
32 56 
32 57 
32 63 
32 64 
32 69 
32 75 
32 76 
32 77 
32 78 
32 79 
32 80 
32 82 
32 86 
32 88 
32 95 
32 97 
32 99 
33 34 
33 35 
33 36 
33 37 
33 38 
33 39 
33 40 
33 41 
33 42 
33 44 
33 47 
33 50 
33 54 
33 58 
33 62 
33 65 
33 69 
33 73 
33 77 
33 81 
33 85 
33 90 
33 94 
33 98 
34 35 
34 36 
34 43 
34 45 
34 47 
34 48 
34 49 
34 50 
34 53 
34 55 
34 62 
34 65 
34 66 
34 73 
34 77 
34 78 
34 85 
34 89 
34 91 
34 98 
35 36 
35 44 
35 46 
35 50 
35 53 
35 56 
35 57 
35 58 
35 59 
35 60 
35 62 
35 66 
35 67 
35 73 
35 78 
35 79 
35 85 
35 89 
35 92 
35 98 
36 45 
36 50 
36 54 
36 56 
36 62 
36 67 
36 68 
36 69 
36 70 
36 71 
36 72 
36 73 
36 79 
36 80 
36 85 
36 90 
36 92 
36 93 
36 94 
36 95 
36 96 
36 98 
37 38 
37 39 
37 43 
37 44 
37 48 
37 50 
37 51 
37 52 
37 54 
37 57 
37 59 
37 65 
37 69 
37 70 
37 77 
37 81 
37 82 
37 90 
37 93 
37 95 
38 39 
38 44 
38 47 
38 49 
38 54 
38 57 
38 60 
38 61 
38 62 
38 63 
38 64 
38 65 
38 70 
38 71 
38 77 
38 82 
38 83 
38 90 
38 93 
38 96 
39 44 
39 48 
39 54 
39 58 
39 60 
39 65 
39 71 
39 72 
39 73 
39 74 
39 75 
39 76 
39 77 
39 83 
39 84 
39 90 
39 94 
39 96 
39 97 
39 98 
39 99 
39 100 
40 41 
40 42 
40 43 
40 44 
40 45 
40 46 
40 47 
40 51 
40 58 
40 61 
40 63 
40 69 
40 73 
40 74 
40 81 
40 85 
40 86 
40 94 
40 97 
40 99 
41 42 
41 47 
41 50 
41 52 
41 53 
41 54 
41 55 
41 56 
41 58 
41 61 
41 64 
41 69 
41 74 
41 75 
41 81 
41 86 
41 87 
41 94 
41 97 
41 100 
42 47 
42 51 
42 58 
42 62 
42 64 
42 65 
42 66 
42 67 
42 68 
42 69 
42 75 
42 76 
42 81 
42 87 
42 88 
42 89 
42 90 
42 91 
42 92 
42 94 
42 98 
42 100 
43 44 
43 45 
43 46 
43 47 
43 48 
43 49 
43 50 
43 51 
43 52 
43 55 
43 59 
43 63 
43 66 
43 70 
43 74 
43 77 
43 81 
43 85 
43 89 
43 93 
43 97 
44 45 
44 46 
44 54 
44 56 
44 57 
44 58 
44 59 
44 60 
44 63 
44 65 
44 67 
44 74 
44 77 
44 78 
44 85 
44 89 
44 90 
44 97 
45 46 
45 53 
45 56 
45 63 
45 65 
45 68 
45 69 
45 70 
45 71 
45 72 
45 74 
45 78 
45 79 
45 85 
45 90 
45 91 
45 97 
46 53 
46 55 
46 63 
46 66 
46 68 
46 74 
46 79 
46 80 
46 81 
46 82 
46 83 
46 84 
46 85 
46 91 
46 92 
46 97 
47 48 
47 49 
47 55 
47 58 
47 60 
47 61 
47 62 
47 63 
47 64 
47 66 
47 69 
47 71 
47 77 
47 81 
47 82 
47 89 
47 93 
47 94 
48 49 
48 55 
48 57 
48 60 
48 66 
48 69 
48 72 
48 73 
48 74 
48 75 
48 76 
48 77 
48 82 
48 83 
48 89 
48 94 
48 95 
49 55 
49 57 
49 59 
49 66 
49 70 
49 72 
49 77 
49 83 
49 84 
49 85 
49 86 
49 87 
49 88 
49 89 
49 95 
49 96 
50 51 
50 52 
50 53 
50 54 
50 55 
50 56 
50 59 
50 62 
50 64 
50 70 
50 73 
50 75 
50 81 
50 85 
50 86 
50 93 
50 97 
50 98 
51 52 
51 59 
51 61 
51 64 
51 65 
51 66 
51 67 
51 68 
51 70 
51 73 
51 76 
51 81 
51 86 
51 87 
51 93 
51 98 
51 99 
52 59 
52 61 
52 63 
52 70 
52 74 
52 76 
52 77 
52 78 
52 79 
52 80 
52 81 
52 87 
52 88 
52 93 
52 99 
52 100 
53 54 
53 55 
53 56 
53 64 
53 65 
53 66 
53 75 
53 78 
53 79 
53 86 
53 91 
53 92 
53 97 
54 55 
54 56 
54 64 
54 65 
54 67 
54 75 
54 77 
54 80 
54 86 
54 90 
54 92 
54 93 
54 94 
54 95 
54 96 
54 97 
55 56 
55 64 
55 66 
55 68 
55 75 
55 77 
55 80 
55 81 
55 82 
55 83 
55 84 
55 86 
55 89 
55 91 
55 97 
56 57 
56 58 
56 59 
56 60 
56 64 
56 67 
56 68 
56 69 
56 70 
56 71 
56 72 
56 75 
56 78 
56 79 
56 86 
56 89 
56 90 
56 97 
57 58 
57 59 
57 60 
57 67 
57 69 
57 70 
57 78 
57 82 
57 83 
57 89 
57 95 
57 96 
58 59 
58 60 
58 67 
58 69 
58 71 
58 78 
58 81 
58 84 
58 89 
58 94 
58 96 
58 97 
58 98 
58 99 
58 100 
59 60 
59 67 
59 70 
59 72 
59 78 
59 81 
59 84 
59 85 
59 86 
59 87 
59 88 
59 89 
59 93 
59 95 
60 61 
60 62 
60 63 
60 64 
60 67 
60 71 
60 72 
60 73 
60 74 
60 75 
60 76 
60 78 
60 82 
60 83 
60 89 
60 93 
60 94 
61 62 
61 63 
61 64 
61 71 
61 73 
61 74 
61 82 
61 86 
61 87 
61 93 
61 99 
61 100 
62 63 
62 64 
62 71 
62 73 
62 75 
62 82 
62 85 
62 88 
62 89 
62 90 
62 91 
62 92 
62 93 
62 98 
62 100 
63 64 
63 71 
63 74 
63 76 
63 77 
63 78 
63 79 
63 80 
63 82 
63 85 
63 88 
63 93 
63 97 
63 99 
64 65 
64 66 
64 67 
64 68 
64 71 
64 75 
64 76 
64 82 
64 86 
64 87 
64 93 
64 97 
64 98 
65 66 
65 67 
65 68 
65 76 
65 77 
65 78 
65 87 
65 90 
65 91 
65 98 
66 67 
66 68 
66 76 
66 77 
66 79 
66 87 
66 89 
66 92 
66 98 
67 68 
67 76 
67 78 
67 80 
67 87 
67 89 
67 92 
67 93 
67 94 
67 95 
67 96 
67 98 
68 69 
68 70 
68 71 
68 72 
68 76 
68 79 
68 80 
68 81 
68 82 
68 83 
68 84 
68 87 
68 90 
68 91 
68 98 
69 70 
69 71 
69 72 
69 79 
69 81 
69 82 
69 90 
69 94 
69 95 
70 71 
70 72 
70 79 
70 81 
70 83 
70 90 
70 93 
70 96 
71 72 
71 79 
71 82 
71 84 
71 90 
71 93 
71 96 
71 97 
71 98 
71 99 
71 100 
72 73 
72 74 
72 75 
72 76 
72 79 
72 83 
72 84 
72 85 
72 86 
72 87 
72 88 
72 90 
72 94 
72 95 
73 74 
73 75 
73 76 
73 83 
73 85 
73 86 
73 94 
73 98 
73 99 
74 75 
74 76 
74 83 
74 85 
74 87 
74 94 
74 97 
74 100 
75 76 
75 83 
75 86 
75 88 
75 89 
75 90 
75 91 
75 92 
75 94 
75 97 
75 100 
76 77 
76 78 
76 79 
76 80 
76 83 
76 87 
76 88 
76 94 
76 98 
76 99 
77 78 
77 79 
77 80 
77 88 
77 89 
77 90 
77 99 
78 79 
78 80 
78 88 
78 89 
78 91 
78 99 
79 80 
79 88 
79 90 
79 92 
79 99 
80 81 
80 82 
80 83 
80 84 
80 88 
80 91 
80 92 
80 93 
80 94 
80 95 
80 96 
80 99 
81 82 
81 83 
81 84 
81 91 
81 93 
81 94 
82 83 
82 84 
82 91 
82 93 
82 95 
83 84 
83 91 
83 94 
83 96 
84 85 
84 86 
84 87 
84 88 
84 91 
84 95 
84 96 
84 97 
84 98 
84 99 
84 100 
85 86 
85 87 
85 88 
85 95 
85 97 
85 98 
86 87 
86 88 
86 95 
86 97 
86 99 
87 88 
87 95 
87 98 
87 100 
88 89 
88 90 
88 91 
88 92 
88 95 
88 99 
88 100 
89 90 
89 91 
89 92 
89 100 
90 91 
90 92 
90 100 
91 92 
91 100 
92 93 
92 94 
92 95 
92 96 
92 100 
93 94 
93 95 
93 96 
94 95 
94 96 
95 96 
96 97 
96 98 
96 99 
96 100 
97 98 
97 99 
97 100 
98 99 
98 100 
99 100 
